NAME /Users/henri/Research/solvers/instances/idol-instances/robust/collection/spp_dkp_Lefebvre_et_al_2026/shortest_path_11_8/uncertainty_sets/discrete_knapsack
ROWS
 N  OBJ
 L  primal_lower
COLUMNS
    MARKER    'MARKER'                 'INTORG'
    y[0,1]     OBJ        0
    y[0,1]     primal_lower -2.37
    y[0,2]     OBJ        0
    y[0,2]     primal_lower -1.09
    y[0,3]     OBJ        0
    y[0,3]     primal_lower -1.23
    y[0,4]     OBJ        0
    y[0,4]     primal_lower -1.9
    y[0,5]     OBJ        0
    y[0,5]     primal_lower -1.81
    y[0,6]     OBJ        0
    y[0,6]     primal_lower -4.78
    y[0,7]     OBJ        0
    y[0,7]     primal_lower -1.96
    y[0,8]     OBJ        0
    y[0,8]     primal_lower -3.7
    y[0,9]     OBJ        0
    y[0,9]     primal_lower -3.65
    y[0,10]    OBJ        0
    y[0,10]    primal_lower -1.49
    y[1,0]     OBJ        0
    y[1,0]     primal_lower -1.66
    y[1,2]     OBJ        0
    y[1,2]     primal_lower -1.69
    y[1,3]     OBJ        0
    y[1,3]     primal_lower -0.7
    y[1,5]     OBJ        0
    y[1,5]     primal_lower -4.66
    y[1,6]     OBJ        0
    y[1,6]     primal_lower -4.36
    y[1,8]     OBJ        0
    y[1,8]     primal_lower -2.69
    y[1,9]     OBJ        0
    y[1,9]     primal_lower -1.5
    y[1,10]    OBJ        0
    y[1,10]    primal_lower -4.26
    y[2,0]     OBJ        0
    y[2,0]     primal_lower -3.23
    y[2,1]     OBJ        0
    y[2,1]     primal_lower -1.88
    y[2,3]     OBJ        0
    y[2,3]     primal_lower -2.43
    y[2,5]     OBJ        0
    y[2,5]     primal_lower -2.51
    y[2,6]     OBJ        0
    y[2,6]     primal_lower -4.45
    y[2,8]     OBJ        0
    y[2,8]     primal_lower -2.74
    y[2,9]     OBJ        0
    y[2,9]     primal_lower -3.2
    y[2,10]    OBJ        0
    y[2,10]    primal_lower -0.25
    y[3,0]     OBJ        0
    y[3,0]     primal_lower -1.57
    y[3,1]     OBJ        0
    y[3,1]     primal_lower -0.27
    y[3,2]     OBJ        0
    y[3,2]     primal_lower -0.86
    y[3,5]     OBJ        0
    y[3,5]     primal_lower -4.44
    y[3,6]     OBJ        0
    y[3,6]     primal_lower -4.5
    y[3,8]     OBJ        0
    y[3,8]     primal_lower -3.42
    y[4,0]     OBJ        0
    y[4,0]     primal_lower -3.51
    y[4,5]     OBJ        0
    y[4,5]     primal_lower -2.21
    y[4,7]     OBJ        0
    y[4,7]     primal_lower -4.47
    y[4,8]     OBJ        0
    y[4,8]     primal_lower -1.95
    y[4,9]     OBJ        0
    y[4,9]     primal_lower -3.28
    y[4,10]    OBJ        0
    y[4,10]    primal_lower -3.12
    y[5,0]     OBJ        0
    y[5,0]     primal_lower -2.87
    y[5,1]     OBJ        0
    y[5,1]     primal_lower -1.06
    y[5,2]     OBJ        0
    y[5,2]     primal_lower -3.27
    y[5,3]     OBJ        0
    y[5,3]     primal_lower -4.21
    y[5,4]     OBJ        0
    y[5,4]     primal_lower -3.82
    y[5,6]     OBJ        0
    y[5,6]     primal_lower -2.07
    y[5,7]     OBJ        0
    y[5,7]     primal_lower -4.4
    y[5,8]     OBJ        0
    y[5,8]     primal_lower -3.75
    y[5,9]     OBJ        0
    y[5,9]     primal_lower -3.48
    y[5,10]    OBJ        0
    y[5,10]    primal_lower -0.6
    y[6,0]     OBJ        0
    y[6,0]     primal_lower -4.39
    y[6,1]     OBJ        0
    y[6,1]     primal_lower -1.86
    y[6,2]     OBJ        0
    y[6,2]     primal_lower -1.41
    y[6,3]     OBJ        0
    y[6,3]     primal_lower -2.96
    y[6,5]     OBJ        0
    y[6,5]     primal_lower -2.24
    y[6,8]     OBJ        0
    y[6,8]     primal_lower -1.22
    y[6,9]     OBJ        0
    y[6,9]     primal_lower -4.02
    y[6,10]    OBJ        0
    y[6,10]    primal_lower -0.86
    y[7,0]     OBJ        0
    y[7,0]     primal_lower -1.09
    y[7,4]     OBJ        0
    y[7,4]     primal_lower -3.16
    y[7,5]     OBJ        0
    y[7,5]     primal_lower -2.3
    y[7,8]     OBJ        0
    y[7,8]     primal_lower -0.35
    y[7,10]    OBJ        0
    y[7,10]    primal_lower -0.67
    y[8,0]     OBJ        0
    y[8,0]     primal_lower -0.54
    y[8,1]     OBJ        0
    y[8,1]     primal_lower -2.29
    y[8,2]     OBJ        0
    y[8,2]     primal_lower -2.59
    y[8,3]     OBJ        0
    y[8,3]     primal_lower -4.59
    y[8,4]     OBJ        0
    y[8,4]     primal_lower -2.8
    y[8,5]     OBJ        0
    y[8,5]     primal_lower -2.53
    y[8,6]     OBJ        0
    y[8,6]     primal_lower -4.42
    y[8,7]     OBJ        0
    y[8,7]     primal_lower -4.41
    y[8,9]     OBJ        0
    y[8,9]     primal_lower -1.21
    y[8,10]    OBJ        0
    y[8,10]    primal_lower -3.27
    y[9,0]     OBJ        0
    y[9,0]     primal_lower -4.62
    y[9,1]     OBJ        0
    y[9,1]     primal_lower -1.09
    y[9,2]     OBJ        0
    y[9,2]     primal_lower -3.43
    y[9,4]     OBJ        0
    y[9,4]     primal_lower -3.83
    y[9,5]     OBJ        0
    y[9,5]     primal_lower -4.49
    y[9,6]     OBJ        0
    y[9,6]     primal_lower -4.09
    y[9,8]     OBJ        0
    y[9,8]     primal_lower -2.02
    y[9,10]    OBJ        0
    y[9,10]    primal_lower -0.03
    y[10,0]    OBJ        0
    y[10,0]    primal_lower -0.17
    y[10,1]    OBJ        0
    y[10,1]    primal_lower -0.07
    y[10,2]    OBJ        0
    y[10,2]    primal_lower -2.82
    y[10,4]    OBJ        0
    y[10,4]    primal_lower -1.84
    y[10,5]    OBJ        0
    y[10,5]    primal_lower -0.55
    y[10,6]    OBJ        0
    y[10,6]    primal_lower -4.15
    y[10,7]    OBJ        0
    y[10,7]    primal_lower -3.94
    y[10,8]    OBJ        0
    y[10,8]    primal_lower -3.54
    y[10,9]    OBJ        0
    y[10,9]    primal_lower -4.03
    u[0,1]     OBJ        0
    u[0,1]     primal_lower 88
    u[0,2]     OBJ        0
    u[0,2]     primal_lower 86
    u[0,3]     OBJ        0
    u[0,3]     primal_lower 100
    u[0,4]     OBJ        0
    u[0,4]     primal_lower 35
    u[0,5]     OBJ        0
    u[0,5]     primal_lower 74
    u[0,6]     OBJ        0
    u[0,6]     primal_lower 76
    u[0,7]     OBJ        0
    u[0,7]     primal_lower 79
    u[0,8]     OBJ        0
    u[0,8]     primal_lower 36
    u[0,9]     OBJ        0
    u[0,9]     primal_lower 76
    u[0,10]    OBJ        0
    u[0,10]    primal_lower 78
    u[1,0]     OBJ        0
    u[1,0]     primal_lower 50
    u[1,2]     OBJ        0
    u[1,2]     primal_lower 1
    u[1,3]     OBJ        0
    u[1,3]     primal_lower 89
    u[1,5]     OBJ        0
    u[1,5]     primal_lower 14
    u[1,6]     OBJ        0
    u[1,6]     primal_lower 60
    u[1,8]     OBJ        0
    u[1,8]     primal_lower 36
    u[1,9]     OBJ        0
    u[1,9]     primal_lower 89
    u[1,10]    OBJ        0
    u[1,10]    primal_lower 79
    u[2,0]     OBJ        0
    u[2,0]     primal_lower 14
    u[2,1]     OBJ        0
    u[2,1]     primal_lower 15
    u[2,3]     OBJ        0
    u[2,3]     primal_lower 12
    u[2,5]     OBJ        0
    u[2,5]     primal_lower 19
    u[2,6]     OBJ        0
    u[2,6]     primal_lower 43
    u[2,8]     OBJ        0
    u[2,8]     primal_lower 11
    u[2,9]     OBJ        0
    u[2,9]     primal_lower 76
    u[2,10]    OBJ        0
    u[2,10]    primal_lower 47
    u[3,0]     OBJ        0
    u[3,0]     primal_lower 96
    u[3,1]     OBJ        0
    u[3,1]     primal_lower 10
    u[3,2]     OBJ        0
    u[3,2]     primal_lower 5
    u[3,5]     OBJ        0
    u[3,5]     primal_lower 15
    u[3,6]     OBJ        0
    u[3,6]     primal_lower 45
    u[3,8]     OBJ        0
    u[3,8]     primal_lower 28
    u[4,0]     OBJ        0
    u[4,0]     primal_lower 65
    u[4,5]     OBJ        0
    u[4,5]     primal_lower 86
    u[4,7]     OBJ        0
    u[4,7]     primal_lower 68
    u[4,8]     OBJ        0
    u[4,8]     primal_lower 10
    u[4,9]     OBJ        0
    u[4,9]     primal_lower 29
    u[4,10]    OBJ        0
    u[4,10]    primal_lower 83
    u[5,0]     OBJ        0
    u[5,0]     primal_lower 18
    u[5,1]     OBJ        0
    u[5,1]     primal_lower 6
    u[5,2]     OBJ        0
    u[5,2]     primal_lower 37
    u[5,3]     OBJ        0
    u[5,3]     primal_lower 82
    u[5,4]     OBJ        0
    u[5,4]     primal_lower 84
    u[5,6]     OBJ        0
    u[5,6]     primal_lower 95
    u[5,7]     OBJ        0
    u[5,7]     primal_lower 12
    u[5,8]     OBJ        0
    u[5,8]     primal_lower 68
    u[5,9]     OBJ        0
    u[5,9]     primal_lower 75
    u[5,10]    OBJ        0
    u[5,10]    primal_lower 16
    u[6,0]     OBJ        0
    u[6,0]     primal_lower 13
    u[6,1]     OBJ        0
    u[6,1]     primal_lower 69
    u[6,2]     OBJ        0
    u[6,2]     primal_lower 28
    u[6,3]     OBJ        0
    u[6,3]     primal_lower 55
    u[6,5]     OBJ        0
    u[6,5]     primal_lower 98
    u[6,8]     OBJ        0
    u[6,8]     primal_lower 52
    u[6,9]     OBJ        0
    u[6,9]     primal_lower 32
    u[6,10]    OBJ        0
    u[6,10]    primal_lower 36
    u[7,0]     OBJ        0
    u[7,0]     primal_lower 26
    u[7,4]     OBJ        0
    u[7,4]     primal_lower 50
    u[7,5]     OBJ        0
    u[7,5]     primal_lower 47
    u[7,8]     OBJ        0
    u[7,8]     primal_lower 21
    u[7,10]    OBJ        0
    u[7,10]    primal_lower 58
    u[8,0]     OBJ        0
    u[8,0]     primal_lower 37
    u[8,1]     OBJ        0
    u[8,1]     primal_lower 88
    u[8,2]     OBJ        0
    u[8,2]     primal_lower 20
    u[8,3]     OBJ        0
    u[8,3]     primal_lower 88
    u[8,4]     OBJ        0
    u[8,4]     primal_lower 88
    u[8,5]     OBJ        0
    u[8,5]     primal_lower 9
    u[8,6]     OBJ        0
    u[8,6]     primal_lower 35
    u[8,7]     OBJ        0
    u[8,7]     primal_lower 56
    u[8,9]     OBJ        0
    u[8,9]     primal_lower 36
    u[8,10]    OBJ        0
    u[8,10]    primal_lower 37
    u[9,0]     OBJ        0
    u[9,0]     primal_lower 85
    u[9,1]     OBJ        0
    u[9,1]     primal_lower 88
    u[9,2]     OBJ        0
    u[9,2]     primal_lower 81
    u[9,4]     OBJ        0
    u[9,4]     primal_lower 89
    u[9,5]     OBJ        0
    u[9,5]     primal_lower 31
    u[9,6]     OBJ        0
    u[9,6]     primal_lower 16
    u[9,8]     OBJ        0
    u[9,8]     primal_lower 71
    u[9,10]    OBJ        0
    u[9,10]    primal_lower 91
    u[10,0]    OBJ        0
    u[10,0]    primal_lower 76
    u[10,1]    OBJ        0
    u[10,1]    primal_lower 67
    u[10,2]    OBJ        0
    u[10,2]    primal_lower 76
    u[10,4]    OBJ        0
    u[10,4]    primal_lower 90
    u[10,5]    OBJ        0
    u[10,5]    primal_lower 94
    u[10,6]    OBJ        0
    u[10,6]    primal_lower 26
    u[10,7]    OBJ        0
    u[10,7]    primal_lower 58
    u[10,8]    OBJ        0
    u[10,8]    primal_lower 94
    u[10,9]    OBJ        0
    u[10,9]    primal_lower 23
    MARKER    'MARKER'                 'INTEND'
RHS
    RHS       primal_lower 422
BOUNDS
 LI BND       y[0,1]     0
 UI BND       y[0,1]     1
 LI BND       y[0,2]     0
 UI BND       y[0,2]     1
 LI BND       y[0,3]     0
 UI BND       y[0,3]     1
 LI BND       y[0,4]     0
 UI BND       y[0,4]     1
 LI BND       y[0,5]     0
 UI BND       y[0,5]     1
 LI BND       y[0,6]     0
 UI BND       y[0,6]     1
 LI BND       y[0,7]     0
 UI BND       y[0,7]     1
 LI BND       y[0,8]     0
 UI BND       y[0,8]     1
 LI BND       y[0,9]     0
 UI BND       y[0,9]     1
 LI BND       y[0,10]    0
 UI BND       y[0,10]    1
 LI BND       y[1,0]     0
 UI BND       y[1,0]     1
 LI BND       y[1,2]     0
 UI BND       y[1,2]     1
 LI BND       y[1,3]     0
 UI BND       y[1,3]     1
 LI BND       y[1,5]     0
 UI BND       y[1,5]     1
 LI BND       y[1,6]     0
 UI BND       y[1,6]     1
 LI BND       y[1,8]     0
 UI BND       y[1,8]     1
 LI BND       y[1,9]     0
 UI BND       y[1,9]     1
 LI BND       y[1,10]    0
 UI BND       y[1,10]    1
 LI BND       y[2,0]     0
 UI BND       y[2,0]     1
 LI BND       y[2,1]     0
 UI BND       y[2,1]     1
 LI BND       y[2,3]     0
 UI BND       y[2,3]     1
 LI BND       y[2,5]     0
 UI BND       y[2,5]     1
 LI BND       y[2,6]     0
 UI BND       y[2,6]     1
 LI BND       y[2,8]     0
 UI BND       y[2,8]     1
 LI BND       y[2,9]     0
 UI BND       y[2,9]     1
 LI BND       y[2,10]    0
 UI BND       y[2,10]    1
 LI BND       y[3,0]     0
 UI BND       y[3,0]     1
 LI BND       y[3,1]     0
 UI BND       y[3,1]     1
 LI BND       y[3,2]     0
 UI BND       y[3,2]     1
 LI BND       y[3,5]     0
 UI BND       y[3,5]     1
 LI BND       y[3,6]     0
 UI BND       y[3,6]     1
 LI BND       y[3,8]     0
 UI BND       y[3,8]     1
 LI BND       y[4,0]     0
 UI BND       y[4,0]     1
 LI BND       y[4,5]     0
 UI BND       y[4,5]     1
 LI BND       y[4,7]     0
 UI BND       y[4,7]     1
 LI BND       y[4,8]     0
 UI BND       y[4,8]     1
 LI BND       y[4,9]     0
 UI BND       y[4,9]     1
 LI BND       y[4,10]    0
 UI BND       y[4,10]    1
 LI BND       y[5,0]     0
 UI BND       y[5,0]     1
 LI BND       y[5,1]     0
 UI BND       y[5,1]     1
 LI BND       y[5,2]     0
 UI BND       y[5,2]     1
 LI BND       y[5,3]     0
 UI BND       y[5,3]     1
 LI BND       y[5,4]     0
 UI BND       y[5,4]     1
 LI BND       y[5,6]     0
 UI BND       y[5,6]     1
 LI BND       y[5,7]     0
 UI BND       y[5,7]     1
 LI BND       y[5,8]     0
 UI BND       y[5,8]     1
 LI BND       y[5,9]     0
 UI BND       y[5,9]     1
 LI BND       y[5,10]    0
 UI BND       y[5,10]    1
 LI BND       y[6,0]     0
 UI BND       y[6,0]     1
 LI BND       y[6,1]     0
 UI BND       y[6,1]     1
 LI BND       y[6,2]     0
 UI BND       y[6,2]     1
 LI BND       y[6,3]     0
 UI BND       y[6,3]     1
 LI BND       y[6,5]     0
 UI BND       y[6,5]     1
 LI BND       y[6,8]     0
 UI BND       y[6,8]     1
 LI BND       y[6,9]     0
 UI BND       y[6,9]     1
 LI BND       y[6,10]    0
 UI BND       y[6,10]    1
 LI BND       y[7,0]     0
 UI BND       y[7,0]     1
 LI BND       y[7,4]     0
 UI BND       y[7,4]     1
 LI BND       y[7,5]     0
 UI BND       y[7,5]     1
 LI BND       y[7,8]     0
 UI BND       y[7,8]     1
 LI BND       y[7,10]    0
 UI BND       y[7,10]    1
 LI BND       y[8,0]     0
 UI BND       y[8,0]     1
 LI BND       y[8,1]     0
 UI BND       y[8,1]     1
 LI BND       y[8,2]     0
 UI BND       y[8,2]     1
 LI BND       y[8,3]     0
 UI BND       y[8,3]     1
 LI BND       y[8,4]     0
 UI BND       y[8,4]     1
 LI BND       y[8,5]     0
 UI BND       y[8,5]     1
 LI BND       y[8,6]     0
 UI BND       y[8,6]     1
 LI BND       y[8,7]     0
 UI BND       y[8,7]     1
 LI BND       y[8,9]     0
 UI BND       y[8,9]     1
 LI BND       y[8,10]    0
 UI BND       y[8,10]    1
 LI BND       y[9,0]     0
 UI BND       y[9,0]     1
 LI BND       y[9,1]     0
 UI BND       y[9,1]     1
 LI BND       y[9,2]     0
 UI BND       y[9,2]     1
 LI BND       y[9,4]     0
 UI BND       y[9,4]     1
 LI BND       y[9,5]     0
 UI BND       y[9,5]     1
 LI BND       y[9,6]     0
 UI BND       y[9,6]     1
 LI BND       y[9,8]     0
 UI BND       y[9,8]     1
 LI BND       y[9,10]    0
 UI BND       y[9,10]    1
 LI BND       y[10,0]    0
 UI BND       y[10,0]    1
 LI BND       y[10,1]    0
 UI BND       y[10,1]    1
 LI BND       y[10,2]    0
 UI BND       y[10,2]    1
 LI BND       y[10,4]    0
 UI BND       y[10,4]    1
 LI BND       y[10,5]    0
 UI BND       y[10,5]    1
 LI BND       y[10,6]    0
 UI BND       y[10,6]    1
 LI BND       y[10,7]    0
 UI BND       y[10,7]    1
 LI BND       y[10,8]    0
 UI BND       y[10,8]    1
 LI BND       y[10,9]    0
 UI BND       y[10,9]    1
 LI BND       u[0,1]     0
 UI BND       u[0,1]     1
 LI BND       u[0,2]     0
 UI BND       u[0,2]     1
 LI BND       u[0,3]     0
 UI BND       u[0,3]     1
 LI BND       u[0,4]     0
 UI BND       u[0,4]     1
 LI BND       u[0,5]     0
 UI BND       u[0,5]     1
 LI BND       u[0,6]     0
 UI BND       u[0,6]     1
 LI BND       u[0,7]     0
 UI BND       u[0,7]     1
 LI BND       u[0,8]     0
 UI BND       u[0,8]     1
 LI BND       u[0,9]     0
 UI BND       u[0,9]     1
 LI BND       u[0,10]    0
 UI BND       u[0,10]    1
 LI BND       u[1,0]     0
 UI BND       u[1,0]     1
 LI BND       u[1,2]     0
 UI BND       u[1,2]     1
 LI BND       u[1,3]     0
 UI BND       u[1,3]     1
 LI BND       u[1,5]     0
 UI BND       u[1,5]     1
 LI BND       u[1,6]     0
 UI BND       u[1,6]     1
 LI BND       u[1,8]     0
 UI BND       u[1,8]     1
 LI BND       u[1,9]     0
 UI BND       u[1,9]     1
 LI BND       u[1,10]    0
 UI BND       u[1,10]    1
 LI BND       u[2,0]     0
 UI BND       u[2,0]     1
 LI BND       u[2,1]     0
 UI BND       u[2,1]     1
 LI BND       u[2,3]     0
 UI BND       u[2,3]     1
 LI BND       u[2,5]     0
 UI BND       u[2,5]     1
 LI BND       u[2,6]     0
 UI BND       u[2,6]     1
 LI BND       u[2,8]     0
 UI BND       u[2,8]     1
 LI BND       u[2,9]     0
 UI BND       u[2,9]     1
 LI BND       u[2,10]    0
 UI BND       u[2,10]    1
 LI BND       u[3,0]     0
 UI BND       u[3,0]     1
 LI BND       u[3,1]     0
 UI BND       u[3,1]     1
 LI BND       u[3,2]     0
 UI BND       u[3,2]     1
 LI BND       u[3,5]     0
 UI BND       u[3,5]     1
 LI BND       u[3,6]     0
 UI BND       u[3,6]     1
 LI BND       u[3,8]     0
 UI BND       u[3,8]     1
 LI BND       u[4,0]     0
 UI BND       u[4,0]     1
 LI BND       u[4,5]     0
 UI BND       u[4,5]     1
 LI BND       u[4,7]     0
 UI BND       u[4,7]     1
 LI BND       u[4,8]     0
 UI BND       u[4,8]     1
 LI BND       u[4,9]     0
 UI BND       u[4,9]     1
 LI BND       u[4,10]    0
 UI BND       u[4,10]    1
 LI BND       u[5,0]     0
 UI BND       u[5,0]     1
 LI BND       u[5,1]     0
 UI BND       u[5,1]     1
 LI BND       u[5,2]     0
 UI BND       u[5,2]     1
 LI BND       u[5,3]     0
 UI BND       u[5,3]     1
 LI BND       u[5,4]     0
 UI BND       u[5,4]     1
 LI BND       u[5,6]     0
 UI BND       u[5,6]     1
 LI BND       u[5,7]     0
 UI BND       u[5,7]     1
 LI BND       u[5,8]     0
 UI BND       u[5,8]     1
 LI BND       u[5,9]     0
 UI BND       u[5,9]     1
 LI BND       u[5,10]    0
 UI BND       u[5,10]    1
 LI BND       u[6,0]     0
 UI BND       u[6,0]     1
 LI BND       u[6,1]     0
 UI BND       u[6,1]     1
 LI BND       u[6,2]     0
 UI BND       u[6,2]     1
 LI BND       u[6,3]     0
 UI BND       u[6,3]     1
 LI BND       u[6,5]     0
 UI BND       u[6,5]     1
 LI BND       u[6,8]     0
 UI BND       u[6,8]     1
 LI BND       u[6,9]     0
 UI BND       u[6,9]     1
 LI BND       u[6,10]    0
 UI BND       u[6,10]    1
 LI BND       u[7,0]     0
 UI BND       u[7,0]     1
 LI BND       u[7,4]     0
 UI BND       u[7,4]     1
 LI BND       u[7,5]     0
 UI BND       u[7,5]     1
 LI BND       u[7,8]     0
 UI BND       u[7,8]     1
 LI BND       u[7,10]    0
 UI BND       u[7,10]    1
 LI BND       u[8,0]     0
 UI BND       u[8,0]     1
 LI BND       u[8,1]     0
 UI BND       u[8,1]     1
 LI BND       u[8,2]     0
 UI BND       u[8,2]     1
 LI BND       u[8,3]     0
 UI BND       u[8,3]     1
 LI BND       u[8,4]     0
 UI BND       u[8,4]     1
 LI BND       u[8,5]     0
 UI BND       u[8,5]     1
 LI BND       u[8,6]     0
 UI BND       u[8,6]     1
 LI BND       u[8,7]     0
 UI BND       u[8,7]     1
 LI BND       u[8,9]     0
 UI BND       u[8,9]     1
 LI BND       u[8,10]    0
 UI BND       u[8,10]    1
 LI BND       u[9,0]     0
 UI BND       u[9,0]     1
 LI BND       u[9,1]     0
 UI BND       u[9,1]     1
 LI BND       u[9,2]     0
 UI BND       u[9,2]     1
 LI BND       u[9,4]     0
 UI BND       u[9,4]     1
 LI BND       u[9,5]     0
 UI BND       u[9,5]     1
 LI BND       u[9,6]     0
 UI BND       u[9,6]     1
 LI BND       u[9,8]     0
 UI BND       u[9,8]     1
 LI BND       u[9,10]    0
 UI BND       u[9,10]    1
 LI BND       u[10,0]    0
 UI BND       u[10,0]    1
 LI BND       u[10,1]    0
 UI BND       u[10,1]    1
 LI BND       u[10,2]    0
 UI BND       u[10,2]    1
 LI BND       u[10,4]    0
 UI BND       u[10,4]    1
 LI BND       u[10,5]    0
 UI BND       u[10,5]    1
 LI BND       u[10,6]    0
 UI BND       u[10,6]    1
 LI BND       u[10,7]    0
 UI BND       u[10,7]    1
 LI BND       u[10,8]    0
 UI BND       u[10,8]    1
 LI BND       u[10,9]    0
 UI BND       u[10,9]    1
ENDATA
